36 36
23
3 3 33 0
3 4 11 10
3 5 0 16
3 6 3 0
3 7 8 18
3 8 11 28
3 9 33 27
3 10 11 0
3 11 8 25
3 12 3 6
3 14 11 14
3 15 5 21
3 16 0 0
3 24 33 3
3 36 14 0
4 3 29 22
4 11 29 25
4 22 29 0
5 3 3 18
5 4 6 0
5 14 6 4
5 15 0 21
12 36 17 0
